c CNF file corresponding to a (partial) station packing problem.
p cnf 879 229
1 2 3 4 5 6 7 8 9 10 11 12 13 14 0
-1 -2 0
-1 -3 0
-1 -4 0
-1 -5 0
-1 -6 0
-1 -7 0
-1 -8 0
-1 -9 0
-1 -10 0
-1 -11 0
-1 -12 0
-1 -13 0
-1 -14 0
-2 -3 0
-2 -4 0
-2 -5 0
-2 -6 0
-2 -7 0
-2 -8 0
-2 -9 0
-2 -10 0
-2 -11 0
-2 -12 0
-2 -13 0
-2 -14 0
-3 -4 0
-3 -5 0
-3 -6 0
-3 -7 0
-3 -8 0
-3 -9 0
-3 -10 0
-3 -11 0
-3 -12 0
-3 -13 0
-3 -14 0
-4 -5 0
-4 -6 0
-4 -7 0
-4 -8 0
-4 -9 0
-4 -10 0
-4 -11 0
-4 -12 0
-4 -13 0
-4 -14 0
-5 -6 0
-5 -7 0
-5 -8 0
-5 -9 0
-5 -10 0
-5 -11 0
-5 -12 0
-5 -13 0
-5 -14 0
-6 -7 0
-6 -8 0
-6 -9 0
-6 -10 0
-6 -11 0
-6 -12 0
-6 -13 0
-6 -14 0
-7 -8 0
-7 -9 0
-7 -10 0
-7 -11 0
-7 -12 0
-7 -13 0
-7 -14 0
-8 -9 0
-8 -10 0
-8 -11 0
-8 -12 0
-8 -13 0
-8 -14 0
-9 -10 0
-9 -11 0
-9 -12 0
-9 -13 0
-9 -14 0
-10 -11 0
-10 -12 0
-10 -13 0
-10 -14 0
-11 -12 0
-11 -13 0
-11 -14 0
-12 -13 0
-12 -14 0
-13 -14 0
863 864 865 866 867 868 869 870 871 872 873 874 875 876 877 878 879 0
-863 -864 0
-863 -865 0
-863 -866 0
-863 -867 0
-863 -868 0
-863 -869 0
-863 -870 0
-863 -871 0
-863 -872 0
-863 -873 0
-863 -874 0
-863 -875 0
-863 -876 0
-863 -877 0
-863 -878 0
-863 -879 0
-864 -865 0
-864 -866 0
-864 -867 0
-864 -868 0
-864 -869 0
-864 -870 0
-864 -871 0
-864 -872 0
-864 -873 0
-864 -874 0
-864 -875 0
-864 -876 0
-864 -877 0
-864 -878 0
-864 -879 0
-865 -866 0
-865 -867 0
-865 -868 0
-865 -869 0
-865 -870 0
-865 -871 0
-865 -872 0
-865 -873 0
-865 -874 0
-865 -875 0
-865 -876 0
-865 -877 0
-865 -878 0
-865 -879 0
-866 -867 0
-866 -868 0
-866 -869 0
-866 -870 0
-866 -871 0
-866 -872 0
-866 -873 0
-866 -874 0
-866 -875 0
-866 -876 0
-866 -877 0
-866 -878 0
-866 -879 0
-867 -868 0
-867 -869 0
-867 -870 0
-867 -871 0
-867 -872 0
-867 -873 0
-867 -874 0
-867 -875 0
-867 -876 0
-867 -877 0
-867 -878 0
-867 -879 0
-868 -869 0
-868 -870 0
-868 -871 0
-868 -872 0
-868 -873 0
-868 -874 0
-868 -875 0
-868 -876 0
-868 -877 0
-868 -878 0
-868 -879 0
-869 -870 0
-869 -871 0
-869 -872 0
-869 -873 0
-869 -874 0
-869 -875 0
-869 -876 0
-869 -877 0
-869 -878 0
-869 -879 0
-870 -871 0
-870 -872 0
-870 -873 0
-870 -874 0
-870 -875 0
-870 -876 0
-870 -877 0
-870 -878 0
-870 -879 0
-871 -872 0
-871 -873 0
-871 -874 0
-871 -875 0
-871 -876 0
-871 -877 0
-871 -878 0
-871 -879 0
-872 -873 0
-872 -874 0
-872 -875 0
-872 -876 0
-872 -877 0
-872 -878 0
-872 -879 0
-873 -874 0
-873 -875 0
-873 -876 0
-873 -877 0
-873 -878 0
-873 -879 0
-874 -875 0
-874 -876 0
-874 -877 0
-874 -878 0
-874 -879 0
-875 -876 0
-875 -877 0
-875 -878 0
-875 -879 0
-876 -877 0
-876 -878 0
-876 -879 0
-877 -878 0
-877 -879 0
-878 -879 0
